param set_len = 60;
param target := 16703623348;
set values := 616308724, 146777186, 717622087, 984465724, 403799791, 13828142, 422723732, 644120409, 853966601, 666121022, 671262673, 408587678, 839431029, 462451243, 448858361, 292664381, 1028385567, 120897442, 457792203, 678014661, 912016788, 612895062, 580320240, 931478106, 709230959, 453548692, 857486972, 623236020, 224478087, 674969916, 847648212, 920424095, 361016482, 944441962, 602873242, 408237219, 866874465, 990763879, 444896456, 467711668, 1067218763, 59377470, 386234779, 222763850, 951597133, 926985988, 692618681, 1026412985, 91802213, 49819005, 1070109755, 851717766, 539410890, 641662032, 155931650, 1006652435, 533455019, 12922563, 938216552, 495917858, ;
